unknown
(model
; cardinality of BoundSet is 2
(declare-sort BoundSet 0)
; rep: @uc_BoundSet_0
; rep: @uc_BoundSet_1
; cardinality of UnboundSet is 1
(declare-sort UnboundSet 0)
(declare-fun groundTerm_3 () UnboundSet)
(define-fun GaveMoney ((BOUND_VARIABLE_392 BoundSet) (BOUND_VARIABLE_393 BoundSet)) Bool false)
(define-fun IsGivenTo ((BOUND_VARIABLE_392 BoundSet) (BOUND_VARIABLE_393 BoundSet)) Bool true)
(define-fun IsGreedy ((BOUND_VARIABLE_404 BoundSet)) Bool false)
(define-fun IsMillionaire ((BOUND_VARIABLE_404 BoundSet)) Bool false)
)
sat
(model
; cardinality of BoundSet is 1
(declare-sort BoundSet 0)
; rep: @uc_BoundSet_0
; cardinality of UnboundSet is 1
(declare-sort UnboundSet 0)
(declare-fun groundTerm_5 () UnboundSet)
(define-fun GaveMoney ((BOUND_VARIABLE_433 BoundSet) (BOUND_VARIABLE_434 BoundSet)) Bool false)
(define-fun IsGivenTo ((BOUND_VARIABLE_433 BoundSet) (BOUND_VARIABLE_434 BoundSet)) Bool true)
(define-fun IsGreedy ((BOUND_VARIABLE_442 BoundSet)) Bool false)
(define-fun IsMillionaire ((BOUND_VARIABLE_442 BoundSet)) Bool true)
)
